c Generated map
c Size: 8 * 8, weights in range: 1 to 10, walls: False, with ratio 0.0
c dim 5 of 9
c
p sp 64 112
c graph contains 64 nodes and 112 arcs
c
a 1 9 9
a 9 1 9
a 1 2 7
a 2 1 7
a 2 10 1
a 10 2 1
a 2 3 2
a 3 2 2
a 3 11 3
a 11 3 3
a 3 4 1
a 4 3 1
a 4 12 5
a 12 4 5
a 4 5 7
a 5 4 7
a 5 13 5
a 13 5 5
a 5 6 3
a 6 5 3
a 6 14 7
a 14 6 7
a 6 7 3
a 7 6 3
a 7 15 5
a 15 7 5
a 7 8 5
a 8 7 5
a 8 16 8
a 16 8 8
a 9 17 1
a 17 9 1
a 9 10 10
a 10 9 10
a 10 18 7
a 18 10 7
a 10 11 3
a 11 10 3
a 11 19 6
a 19 11 6
a 11 12 3
a 12 11 3
a 12 20 7
a 20 12 7
a 12 13 5
a 13 12 5
a 13 21 5
a 21 13 5
a 13 14 8
a 14 13 8
a 14 22 8
a 22 14 8
a 14 15 1
a 15 14 1
a 15 23 9
a 23 15 9
a 15 16 2
a 16 15 2
a 16 24 3
a 24 16 3
a 17 25 3
a 25 17 3
a 17 18 4
a 18 17 4
a 18 26 1
a 26 18 1
a 18 19 3
a 19 18 3
a 19 27 10
a 27 19 10
a 19 20 8
a 20 19 8
a 20 28 2
a 28 20 2
a 20 21 7
a 21 20 7
a 21 29 3
a 29 21 3
a 21 22 7
a 22 21 7
a 22 30 4
a 30 22 4
a 22 23 6
a 23 22 6
a 23 31 1
a 31 23 1
a 23 24 3
a 24 23 3
a 24 32 1
a 32 24 1
a 25 33 6
a 33 25 6
a 25 26 6
a 26 25 6
a 26 34 6
a 34 26 6
a 26 27 3
a 27 26 3
a 27 35 5
a 35 27 5
a 27 28 9
a 28 27 9
a 28 36 8
a 36 28 8
a 28 29 10
a 29 28 10
a 29 37 3
a 37 29 3
a 29 30 1
a 30 29 1
a 30 38 9
a 38 30 9
a 30 31 5
a 31 30 5
a 31 39 2
a 39 31 2
a 31 32 8
a 32 31 8
a 32 40 6
a 40 32 6
a 33 41 1
a 41 33 1
a 33 34 7
a 34 33 7
a 34 42 6
a 42 34 6
a 34 35 7
a 35 34 7
a 35 43 1
a 43 35 1
a 35 36 1
a 36 35 1
a 36 44 9
a 44 36 9
a 36 37 5
a 37 36 5
a 37 45 1
a 45 37 1
a 37 38 4
a 38 37 4
a 38 46 9
a 46 38 9
a 38 39 2
a 39 38 2
a 39 47 10
a 47 39 10
a 39 40 2
a 40 39 2
a 40 48 5
a 48 40 5
a 41 49 2
a 49 41 2
a 41 42 2
a 42 41 2
a 42 50 4
a 50 42 4
a 42 43 8
a 43 42 8
a 43 51 4
a 51 43 4
a 43 44 9
a 44 43 9
a 44 52 1
a 52 44 1
a 44 45 9
a 45 44 9
a 45 53 3
a 53 45 3
a 45 46 1
a 46 45 1
a 46 54 5
a 54 46 5
a 46 47 3
a 47 46 3
a 47 55 1
a 55 47 1
a 47 48 5
a 48 47 5
a 48 56 10
a 56 48 10
a 49 57 9
a 57 49 9
a 49 50 5
a 50 49 5
a 50 58 10
a 58 50 10
a 50 51 2
a 51 50 2
a 51 59 4
a 59 51 4
a 51 52 1
a 52 51 1
a 52 60 9
a 60 52 9
a 52 53 4
a 53 52 4
a 53 61 4
a 61 53 4
a 53 54 2
a 54 53 2
a 54 62 7
a 62 54 7
a 54 55 6
a 55 54 6
a 55 63 5
a 63 55 5
a 55 56 6
a 56 55 6
a 56 64 6
a 64 56 6
a 57 58 5
a 58 57 5
a 58 59 7
a 59 58 7
a 59 60 1
a 60 59 1
a 60 61 4
a 61 60 4
a 61 62 10
a 62 61 10
a 62 63 10
a 63 62 10
a 63 64 7
a 64 63 7
